(declare-fun e () String)
(declare-fun c () String)
(declare-fun g () String)
(declare-fun d () String)
(declare-fun f () String)
(declare-fun a () String)
(assert (= (str.++ c "f" d) (str.++ "e" f c "aa" g)))
(assert (= (str.++ "e" a "gd") (str.++ g "g")))
(assert (= (str.++ a "bf") (str.++ e "ac" f "ba")))

(check-sat)
